c 
c G(k,n,p) graph
c graph gen seed     : 43855
c number of vertices : 70
c max number of edges: 1225
c number of classes  : 2
c edge density       : 0.100000
c edge probability   : 0.200000
c data structure     : sparse
c
c           Graph Stats
c number of vertices  : 70
c nonisolated vertices: 70
c number of edges     : 266
c edge density        : 0.110145
c max degree          : 15
c avg degree          : 7.60
c min degree          : 2
p col 70 266
e 1 39
e 1 29
e 1 21
e 2 61
e 2 53
e 2 52
e 2 47
e 2 36
e 2 3
e 3 69
e 3 50
e 3 48
e 3 29
e 3 6
e 3 5
e 3 4
e 4 70
e 4 47
e 4 28
e 4 20
e 5 67
e 5 37
e 5 32
e 5 28
e 5 18
e 5 17
e 6 64
e 6 56
e 6 20
e 6 19
e 7 58
e 7 57
e 7 56
e 7 52
e 7 47
e 7 36
e 7 32
e 7 28
e 7 23
e 7 18
e 7 12
e 7 9
e 8 69
e 8 49
e 8 34
e 8 25
e 8 22
e 9 68
e 9 60
e 9 49
e 9 44
e 9 38
e 9 16
e 10 68
e 10 50
e 10 46
e 10 34
e 10 33
e 10 31
e 10 29
e 10 21
e 10 16
e 11 70
e 11 65
e 11 61
e 11 51
e 11 35
e 11 20
e 11 18
e 12 62
e 12 59
e 12 38
e 12 14
e 13 57
e 13 54
e 13 47
e 13 35
e 13 32
e 14 70
e 14 65
e 14 57
e 14 56
e 14 54
e 14 53
e 15 68
e 15 59
e 15 49
e 15 42
e 15 34
e 15 31
e 15 22
e 16 52
e 16 36
e 16 35
e 16 23
e 17 63
e 17 60
e 17 59
e 17 50
e 17 49
e 17 42
e 17 40
e 17 39
e 17 25
e 18 69
e 18 63
e 18 62
e 18 29
e 18 27
e 19 69
e 19 38
e 19 34
e 19 26
e 20 45
e 20 39
e 20 38
e 20 33
e 20 29
e 20 22
e 21 70
e 21 67
e 21 58
e 21 56
e 21 55
e 21 53
e 21 51
e 21 24
e 21 23
e 22 64
e 22 61
e 22 55
e 22 52
e 22 32
e 23 63
e 23 59
e 23 40
e 23 34
e 23 31
e 23 29
e 23 25
e 24 69
e 24 60
e 24 50
e 24 45
e 24 31
e 24 25
e 25 65
e 25 41
e 26 61
e 27 56
e 27 55
e 27 41
e 27 37
e 27 35
e 27 32
e 28 69
e 28 50
e 28 45
e 28 43
e 28 33
e 28 29
e 29 66
e 29 65
e 29 54
e 29 52
e 29 47
e 29 36
e 29 35
e 29 32
e 30 58
e 30 56
e 30 52
e 30 51
e 30 47
e 30 37
e 30 32
e 31 70
e 31 65
e 31 56
e 31 54
e 31 53
e 32 69
e 32 68
e 32 59
e 32 42
e 33 67
e 33 65
e 33 61
e 33 54
e 33 52
e 33 51
e 33 35
e 34 65
e 34 58
e 34 56
e 34 55
e 34 36
e 35 68
e 35 46
e 35 42
e 36 60
e 36 48
e 36 45
e 36 44
e 36 43
e 37 68
e 37 48
e 37 45
e 38 58
e 38 56
e 38 54
e 38 52
e 39 70
e 39 57
e 39 55
e 39 47
e 40 66
e 40 61
e 40 58
e 40 57
e 40 53
e 40 47
e 41 46
e 41 45
e 41 44
e 41 42
e 42 67
e 42 66
e 42 64
e 42 61
e 42 57
e 42 55
e 42 51
e 43 67
e 43 66
e 43 58
e 43 57
e 44 70
e 44 66
e 44 58
e 44 53
e 45 57
e 46 65
e 47 62
e 47 60
e 48 54
e 49 66
e 49 51
e 50 55
e 50 51
e 52 60
e 52 59
e 54 69
e 55 68
e 55 62
e 58 62
e 60 67
e 61 69
e 61 63
e 63 70
e 63 65
e 64 69
e 66 69
e 67 69
e 67 68
e 69 70
